c User generated cnf file
p cnf 6 17
5 6 -6 0 
1 1 -6 0 
3 -6 5 0 
1 2 -6 0 
4 4 -4 0 
6 2 -1 0 
3 6 -1 0 
1 -5 3 0 
6 3 -3 0 
1 -5 1 0 
2 4 -3 0 
6 1 -4 0 
2 -3 2 0 
1 -5 4 0 
4 4 -1 0 
6 1 -4 0 
5 5 -6 0 
